(set-logic QF_LRA)
(declare-fun X0 () Real )
(declare-fun Y0 () Real )
(declare-fun X1 () Real )
(declare-fun Y1 () Real )
(declare-fun X2 () Real )
(declare-fun Y2 () Real )
(declare-fun X3 () Real )
(declare-fun Y3 () Real )
(declare-fun X4 () Real )
(declare-fun Y4 () Real )
(declare-fun X5 () Real )
(declare-fun Y5 () Real )
(declare-fun X6 () Real )
(declare-fun Y6 () Real )
(declare-fun X7 () Real )
(declare-fun Y7 () Real )
(declare-fun X8 () Real )
(declare-fun Y8 () Real )
(declare-fun X9 () Real )
(declare-fun Y9 () Real )
(declare-fun X10 () Real )
(declare-fun Y10 () Real )
(declare-fun X11 () Real )
(declare-fun Y11 () Real )
(declare-fun X12 () Real )
(declare-fun Y12 () Real )
(declare-fun X13 () Real )
(declare-fun Y13 () Real )
(declare-fun X14 () Real )
(declare-fun Y14 () Real )
(declare-fun Z () Real )
(assert ( and  
( or ( <= ( + X0 49 ) X1 )  ( <= ( + X1 14 ) X0 )  ( <= ( + Y0 85 ) Y1 )  ( <= ( + Y1 94 ) Y0 )  )
( or ( <= ( + X0 49 ) X2 )  ( <= ( + X2 73 ) X0 )  ( <= ( + Y0 85 ) Y2 )  ( <= ( + Y2 78 ) Y0 )  )
( or ( <= ( + X0 49 ) X3 )  ( <= ( + X3 68 ) X0 )  ( <= ( + Y0 85 ) Y3 )  ( <= ( + Y3 79 ) Y0 )  )
( or ( <= ( + X0 49 ) X4 )  ( <= ( + X4 17 ) X0 )  ( <= ( + Y0 85 ) Y4 )  ( <= ( + Y4 96 ) Y0 )  )
( or ( <= ( + X0 49 ) X5 )  ( <= ( + X5 8 ) X0 )  ( <= ( + Y0 85 ) Y5 )  ( <= ( + Y5 57 ) Y0 )  )
( or ( <= ( + X0 49 ) X6 )  ( <= ( + X6 25 ) X0 )  ( <= ( + Y0 85 ) Y6 )  ( <= ( + Y6 75 ) Y0 )  )
( or ( <= ( + X0 49 ) X7 )  ( <= ( + X7 1 ) X0 )  ( <= ( + Y0 85 ) Y7 )  ( <= ( + Y7 65 ) Y0 )  )
( or ( <= ( + X0 49 ) X8 )  ( <= ( + X8 35 ) X0 )  ( <= ( + Y0 85 ) Y8 )  ( <= ( + Y8 83 ) Y0 )  )
( or ( <= ( + X0 49 ) X9 )  ( <= ( + X9 71 ) X0 )  ( <= ( + Y0 85 ) Y9 )  ( <= ( + Y9 45 ) Y0 )  )
( or ( <= ( + X0 49 ) X10 )  ( <= ( + X10 16 ) X0 )  ( <= ( + Y0 85 ) Y10 )  ( <= ( + Y10 7 ) Y0 )  )
( or ( <= ( + X0 49 ) X11 )  ( <= ( + X11 56 ) X0 )  ( <= ( + Y0 85 ) Y11 )  ( <= ( + Y11 60 ) Y0 )  )
( or ( <= ( + X0 49 ) X12 )  ( <= ( + X12 60 ) X0 )  ( <= ( + Y0 85 ) Y12 )  ( <= ( + Y12 85 ) Y0 )  )
( or ( <= ( + X0 49 ) X13 )  ( <= ( + X13 1 ) X0 )  ( <= ( + Y0 85 ) Y13 )  ( <= ( + Y13 94 ) Y0 )  )
( or ( <= ( + X0 49 ) X14 )  ( <= ( + X14 88 ) X0 )  ( <= ( + Y0 85 ) Y14 )  ( <= ( + Y14 55 ) Y0 )  )
( or ( <= ( + X1 14 ) X2 )  ( <= ( + X2 73 ) X1 )  ( <= ( + Y1 94 ) Y2 )  ( <= ( + Y2 78 ) Y1 )  )
( or ( <= ( + X1 14 ) X3 )  ( <= ( + X3 68 ) X1 )  ( <= ( + Y1 94 ) Y3 )  ( <= ( + Y3 79 ) Y1 )  )
( or ( <= ( + X1 14 ) X4 )  ( <= ( + X4 17 ) X1 )  ( <= ( + Y1 94 ) Y4 )  ( <= ( + Y4 96 ) Y1 )  )
( or ( <= ( + X1 14 ) X5 )  ( <= ( + X5 8 ) X1 )  ( <= ( + Y1 94 ) Y5 )  ( <= ( + Y5 57 ) Y1 )  )
( or ( <= ( + X1 14 ) X6 )  ( <= ( + X6 25 ) X1 )  ( <= ( + Y1 94 ) Y6 )  ( <= ( + Y6 75 ) Y1 )  )
( or ( <= ( + X1 14 ) X7 )  ( <= ( + X7 1 ) X1 )  ( <= ( + Y1 94 ) Y7 )  ( <= ( + Y7 65 ) Y1 )  )
( or ( <= ( + X1 14 ) X8 )  ( <= ( + X8 35 ) X1 )  ( <= ( + Y1 94 ) Y8 )  ( <= ( + Y8 83 ) Y1 )  )
( or ( <= ( + X1 14 ) X9 )  ( <= ( + X9 71 ) X1 )  ( <= ( + Y1 94 ) Y9 )  ( <= ( + Y9 45 ) Y1 )  )
( or ( <= ( + X1 14 ) X10 )  ( <= ( + X10 16 ) X1 )  ( <= ( + Y1 94 ) Y10 )  ( <= ( + Y10 7 ) Y1 )  )
( or ( <= ( + X1 14 ) X11 )  ( <= ( + X11 56 ) X1 )  ( <= ( + Y1 94 ) Y11 )  ( <= ( + Y11 60 ) Y1 )  )
( or ( <= ( + X1 14 ) X12 )  ( <= ( + X12 60 ) X1 )  ( <= ( + Y1 94 ) Y12 )  ( <= ( + Y12 85 ) Y1 )  )
( or ( <= ( + X1 14 ) X13 )  ( <= ( + X13 1 ) X1 )  ( <= ( + Y1 94 ) Y13 )  ( <= ( + Y13 94 ) Y1 )  )
( or ( <= ( + X1 14 ) X14 )  ( <= ( + X14 88 ) X1 )  ( <= ( + Y1 94 ) Y14 )  ( <= ( + Y14 55 ) Y1 )  )
( or ( <= ( + X2 73 ) X3 )  ( <= ( + X3 68 ) X2 )  ( <= ( + Y2 78 ) Y3 )  ( <= ( + Y3 79 ) Y2 )  )
( or ( <= ( + X2 73 ) X4 )  ( <= ( + X4 17 ) X2 )  ( <= ( + Y2 78 ) Y4 )  ( <= ( + Y4 96 ) Y2 )  )
( or ( <= ( + X2 73 ) X5 )  ( <= ( + X5 8 ) X2 )  ( <= ( + Y2 78 ) Y5 )  ( <= ( + Y5 57 ) Y2 )  )
( or ( <= ( + X2 73 ) X6 )  ( <= ( + X6 25 ) X2 )  ( <= ( + Y2 78 ) Y6 )  ( <= ( + Y6 75 ) Y2 )  )
( or ( <= ( + X2 73 ) X7 )  ( <= ( + X7 1 ) X2 )  ( <= ( + Y2 78 ) Y7 )  ( <= ( + Y7 65 ) Y2 )  )
( or ( <= ( + X2 73 ) X8 )  ( <= ( + X8 35 ) X2 )  ( <= ( + Y2 78 ) Y8 )  ( <= ( + Y8 83 ) Y2 )  )
( or ( <= ( + X2 73 ) X9 )  ( <= ( + X9 71 ) X2 )  ( <= ( + Y2 78 ) Y9 )  ( <= ( + Y9 45 ) Y2 )  )
( or ( <= ( + X2 73 ) X10 )  ( <= ( + X10 16 ) X2 )  ( <= ( + Y2 78 ) Y10 )  ( <= ( + Y10 7 ) Y2 )  )
( or ( <= ( + X2 73 ) X11 )  ( <= ( + X11 56 ) X2 )  ( <= ( + Y2 78 ) Y11 )  ( <= ( + Y11 60 ) Y2 )  )
( or ( <= ( + X2 73 ) X12 )  ( <= ( + X12 60 ) X2 )  ( <= ( + Y2 78 ) Y12 )  ( <= ( + Y12 85 ) Y2 )  )
( or ( <= ( + X2 73 ) X13 )  ( <= ( + X13 1 ) X2 )  ( <= ( + Y2 78 ) Y13 )  ( <= ( + Y13 94 ) Y2 )  )
( or ( <= ( + X2 73 ) X14 )  ( <= ( + X14 88 ) X2 )  ( <= ( + Y2 78 ) Y14 )  ( <= ( + Y14 55 ) Y2 )  )
( or ( <= ( + X3 68 ) X4 )  ( <= ( + X4 17 ) X3 )  ( <= ( + Y3 79 ) Y4 )  ( <= ( + Y4 96 ) Y3 )  )
( or ( <= ( + X3 68 ) X5 )  ( <= ( + X5 8 ) X3 )  ( <= ( + Y3 79 ) Y5 )  ( <= ( + Y5 57 ) Y3 )  )
( or ( <= ( + X3 68 ) X6 )  ( <= ( + X6 25 ) X3 )  ( <= ( + Y3 79 ) Y6 )  ( <= ( + Y6 75 ) Y3 )  )
( or ( <= ( + X3 68 ) X7 )  ( <= ( + X7 1 ) X3 )  ( <= ( + Y3 79 ) Y7 )  ( <= ( + Y7 65 ) Y3 )  )
( or ( <= ( + X3 68 ) X8 )  ( <= ( + X8 35 ) X3 )  ( <= ( + Y3 79 ) Y8 )  ( <= ( + Y8 83 ) Y3 )  )
( or ( <= ( + X3 68 ) X9 )  ( <= ( + X9 71 ) X3 )  ( <= ( + Y3 79 ) Y9 )  ( <= ( + Y9 45 ) Y3 )  )
( or ( <= ( + X3 68 ) X10 )  ( <= ( + X10 16 ) X3 )  ( <= ( + Y3 79 ) Y10 )  ( <= ( + Y10 7 ) Y3 )  )
( or ( <= ( + X3 68 ) X11 )  ( <= ( + X11 56 ) X3 )  ( <= ( + Y3 79 ) Y11 )  ( <= ( + Y11 60 ) Y3 )  )
( or ( <= ( + X3 68 ) X12 )  ( <= ( + X12 60 ) X3 )  ( <= ( + Y3 79 ) Y12 )  ( <= ( + Y12 85 ) Y3 )  )
( or ( <= ( + X3 68 ) X13 )  ( <= ( + X13 1 ) X3 )  ( <= ( + Y3 79 ) Y13 )  ( <= ( + Y13 94 ) Y3 )  )
( or ( <= ( + X3 68 ) X14 )  ( <= ( + X14 88 ) X3 )  ( <= ( + Y3 79 ) Y14 )  ( <= ( + Y14 55 ) Y3 )  )
( or ( <= ( + X4 17 ) X5 )  ( <= ( + X5 8 ) X4 )  ( <= ( + Y4 96 ) Y5 )  ( <= ( + Y5 57 ) Y4 )  )
( or ( <= ( + X4 17 ) X6 )  ( <= ( + X6 25 ) X4 )  ( <= ( + Y4 96 ) Y6 )  ( <= ( + Y6 75 ) Y4 )  )
( or ( <= ( + X4 17 ) X7 )  ( <= ( + X7 1 ) X4 )  ( <= ( + Y4 96 ) Y7 )  ( <= ( + Y7 65 ) Y4 )  )
( or ( <= ( + X4 17 ) X8 )  ( <= ( + X8 35 ) X4 )  ( <= ( + Y4 96 ) Y8 )  ( <= ( + Y8 83 ) Y4 )  )
( or ( <= ( + X4 17 ) X9 )  ( <= ( + X9 71 ) X4 )  ( <= ( + Y4 96 ) Y9 )  ( <= ( + Y9 45 ) Y4 )  )
( or ( <= ( + X4 17 ) X10 )  ( <= ( + X10 16 ) X4 )  ( <= ( + Y4 96 ) Y10 )  ( <= ( + Y10 7 ) Y4 )  )
( or ( <= ( + X4 17 ) X11 )  ( <= ( + X11 56 ) X4 )  ( <= ( + Y4 96 ) Y11 )  ( <= ( + Y11 60 ) Y4 )  )
( or ( <= ( + X4 17 ) X12 )  ( <= ( + X12 60 ) X4 )  ( <= ( + Y4 96 ) Y12 )  ( <= ( + Y12 85 ) Y4 )  )
( or ( <= ( + X4 17 ) X13 )  ( <= ( + X13 1 ) X4 )  ( <= ( + Y4 96 ) Y13 )  ( <= ( + Y13 94 ) Y4 )  )
( or ( <= ( + X4 17 ) X14 )  ( <= ( + X14 88 ) X4 )  ( <= ( + Y4 96 ) Y14 )  ( <= ( + Y14 55 ) Y4 )  )
( or ( <= ( + X5 8 ) X6 )  ( <= ( + X6 25 ) X5 )  ( <= ( + Y5 57 ) Y6 )  ( <= ( + Y6 75 ) Y5 )  )
( or ( <= ( + X5 8 ) X7 )  ( <= ( + X7 1 ) X5 )  ( <= ( + Y5 57 ) Y7 )  ( <= ( + Y7 65 ) Y5 )  )
( or ( <= ( + X5 8 ) X8 )  ( <= ( + X8 35 ) X5 )  ( <= ( + Y5 57 ) Y8 )  ( <= ( + Y8 83 ) Y5 )  )
( or ( <= ( + X5 8 ) X9 )  ( <= ( + X9 71 ) X5 )  ( <= ( + Y5 57 ) Y9 )  ( <= ( + Y9 45 ) Y5 )  )
( or ( <= ( + X5 8 ) X10 )  ( <= ( + X10 16 ) X5 )  ( <= ( + Y5 57 ) Y10 )  ( <= ( + Y10 7 ) Y5 )  )
( or ( <= ( + X5 8 ) X11 )  ( <= ( + X11 56 ) X5 )  ( <= ( + Y5 57 ) Y11 )  ( <= ( + Y11 60 ) Y5 )  )
( or ( <= ( + X5 8 ) X12 )  ( <= ( + X12 60 ) X5 )  ( <= ( + Y5 57 ) Y12 )  ( <= ( + Y12 85 ) Y5 )  )
( or ( <= ( + X5 8 ) X13 )  ( <= ( + X13 1 ) X5 )  ( <= ( + Y5 57 ) Y13 )  ( <= ( + Y13 94 ) Y5 )  )
( or ( <= ( + X5 8 ) X14 )  ( <= ( + X14 88 ) X5 )  ( <= ( + Y5 57 ) Y14 )  ( <= ( + Y14 55 ) Y5 )  )
( or ( <= ( + X6 25 ) X7 )  ( <= ( + X7 1 ) X6 )  ( <= ( + Y6 75 ) Y7 )  ( <= ( + Y7 65 ) Y6 )  )
( or ( <= ( + X6 25 ) X8 )  ( <= ( + X8 35 ) X6 )  ( <= ( + Y6 75 ) Y8 )  ( <= ( + Y8 83 ) Y6 )  )
( or ( <= ( + X6 25 ) X9 )  ( <= ( + X9 71 ) X6 )  ( <= ( + Y6 75 ) Y9 )  ( <= ( + Y9 45 ) Y6 )  )
( or ( <= ( + X6 25 ) X10 )  ( <= ( + X10 16 ) X6 )  ( <= ( + Y6 75 ) Y10 )  ( <= ( + Y10 7 ) Y6 )  )
( or ( <= ( + X6 25 ) X11 )  ( <= ( + X11 56 ) X6 )  ( <= ( + Y6 75 ) Y11 )  ( <= ( + Y11 60 ) Y6 )  )
( or ( <= ( + X6 25 ) X12 )  ( <= ( + X12 60 ) X6 )  ( <= ( + Y6 75 ) Y12 )  ( <= ( + Y12 85 ) Y6 )  )
( or ( <= ( + X6 25 ) X13 )  ( <= ( + X13 1 ) X6 )  ( <= ( + Y6 75 ) Y13 )  ( <= ( + Y13 94 ) Y6 )  )
( or ( <= ( + X6 25 ) X14 )  ( <= ( + X14 88 ) X6 )  ( <= ( + Y6 75 ) Y14 )  ( <= ( + Y14 55 ) Y6 )  )
( or ( <= ( + X7 1 ) X8 )  ( <= ( + X8 35 ) X7 )  ( <= ( + Y7 65 ) Y8 )  ( <= ( + Y8 83 ) Y7 )  )
( or ( <= ( + X7 1 ) X9 )  ( <= ( + X9 71 ) X7 )  ( <= ( + Y7 65 ) Y9 )  ( <= ( + Y9 45 ) Y7 )  )
( or ( <= ( + X7 1 ) X10 )  ( <= ( + X10 16 ) X7 )  ( <= ( + Y7 65 ) Y10 )  ( <= ( + Y10 7 ) Y7 )  )
( or ( <= ( + X7 1 ) X11 )  ( <= ( + X11 56 ) X7 )  ( <= ( + Y7 65 ) Y11 )  ( <= ( + Y11 60 ) Y7 )  )
( or ( <= ( + X7 1 ) X12 )  ( <= ( + X12 60 ) X7 )  ( <= ( + Y7 65 ) Y12 )  ( <= ( + Y12 85 ) Y7 )  )
( or ( <= ( + X7 1 ) X13 )  ( <= ( + X13 1 ) X7 )  ( <= ( + Y7 65 ) Y13 )  ( <= ( + Y13 94 ) Y7 )  )
( or ( <= ( + X7 1 ) X14 )  ( <= ( + X14 88 ) X7 )  ( <= ( + Y7 65 ) Y14 )  ( <= ( + Y14 55 ) Y7 )  )
( or ( <= ( + X8 35 ) X9 )  ( <= ( + X9 71 ) X8 )  ( <= ( + Y8 83 ) Y9 )  ( <= ( + Y9 45 ) Y8 )  )
( or ( <= ( + X8 35 ) X10 )  ( <= ( + X10 16 ) X8 )  ( <= ( + Y8 83 ) Y10 )  ( <= ( + Y10 7 ) Y8 )  )
( or ( <= ( + X8 35 ) X11 )  ( <= ( + X11 56 ) X8 )  ( <= ( + Y8 83 ) Y11 )  ( <= ( + Y11 60 ) Y8 )  )
( or ( <= ( + X8 35 ) X12 )  ( <= ( + X12 60 ) X8 )  ( <= ( + Y8 83 ) Y12 )  ( <= ( + Y12 85 ) Y8 )  )
( or ( <= ( + X8 35 ) X13 )  ( <= ( + X13 1 ) X8 )  ( <= ( + Y8 83 ) Y13 )  ( <= ( + Y13 94 ) Y8 )  )
( or ( <= ( + X8 35 ) X14 )  ( <= ( + X14 88 ) X8 )  ( <= ( + Y8 83 ) Y14 )  ( <= ( + Y14 55 ) Y8 )  )
( or ( <= ( + X9 71 ) X10 )  ( <= ( + X10 16 ) X9 )  ( <= ( + Y9 45 ) Y10 )  ( <= ( + Y10 7 ) Y9 )  )
( or ( <= ( + X9 71 ) X11 )  ( <= ( + X11 56 ) X9 )  ( <= ( + Y9 45 ) Y11 )  ( <= ( + Y11 60 ) Y9 )  )
( or ( <= ( + X9 71 ) X12 )  ( <= ( + X12 60 ) X9 )  ( <= ( + Y9 45 ) Y12 )  ( <= ( + Y12 85 ) Y9 )  )
( or ( <= ( + X9 71 ) X13 )  ( <= ( + X13 1 ) X9 )  ( <= ( + Y9 45 ) Y13 )  ( <= ( + Y13 94 ) Y9 )  )
( or ( <= ( + X9 71 ) X14 )  ( <= ( + X14 88 ) X9 )  ( <= ( + Y9 45 ) Y14 )  ( <= ( + Y14 55 ) Y9 )  )
( or ( <= ( + X10 16 ) X11 )  ( <= ( + X11 56 ) X10 )  ( <= ( + Y10 7 ) Y11 )  ( <= ( + Y11 60 ) Y10 )  )
( or ( <= ( + X10 16 ) X12 )  ( <= ( + X12 60 ) X10 )  ( <= ( + Y10 7 ) Y12 )  ( <= ( + Y12 85 ) Y10 )  )
( or ( <= ( + X10 16 ) X13 )  ( <= ( + X13 1 ) X10 )  ( <= ( + Y10 7 ) Y13 )  ( <= ( + Y13 94 ) Y10 )  )
( or ( <= ( + X10 16 ) X14 )  ( <= ( + X14 88 ) X10 )  ( <= ( + Y10 7 ) Y14 )  ( <= ( + Y14 55 ) Y10 )  )
( or ( <= ( + X11 56 ) X12 )  ( <= ( + X12 60 ) X11 )  ( <= ( + Y11 60 ) Y12 )  ( <= ( + Y12 85 ) Y11 )  )
( or ( <= ( + X11 56 ) X13 )  ( <= ( + X13 1 ) X11 )  ( <= ( + Y11 60 ) Y13 )  ( <= ( + Y13 94 ) Y11 )  )
( or ( <= ( + X11 56 ) X14 )  ( <= ( + X14 88 ) X11 )  ( <= ( + Y11 60 ) Y14 )  ( <= ( + Y14 55 ) Y11 )  )
( or ( <= ( + X12 60 ) X13 )  ( <= ( + X13 1 ) X12 )  ( <= ( + Y12 85 ) Y13 )  ( <= ( + Y13 94 ) Y12 )  )
( or ( <= ( + X12 60 ) X14 )  ( <= ( + X14 88 ) X12 )  ( <= ( + Y12 85 ) Y14 )  ( <= ( + Y14 55 ) Y12 )  )
( or ( <= ( + X13 1 ) X14 )  ( <= ( + X14 88 ) X13 )  ( <= ( + Y13 94 ) Y14 )  ( <= ( + Y14 55 ) Y13 )  )
( >= X0 0)
( <= ( + X0 49) Z)
( >= Y0 0)
( <= ( + Y0 85 ) 193)
( >= X1 0)
( <= ( + X1 14) Z)
( >= Y1 0)
( <= ( + Y1 94 ) 193)
( >= X2 0)
( <= ( + X2 73) Z)
( >= Y2 0)
( <= ( + Y2 78 ) 193)
( >= X3 0)
( <= ( + X3 68) Z)
( >= Y3 0)
( <= ( + Y3 79 ) 193)
( >= X4 0)
( <= ( + X4 17) Z)
( >= Y4 0)
( <= ( + Y4 96 ) 193)
( >= X5 0)
( <= ( + X5 8) Z)
( >= Y5 0)
( <= ( + Y5 57 ) 193)
( >= X6 0)
( <= ( + X6 25) Z)
( >= Y6 0)
( <= ( + Y6 75 ) 193)
( >= X7 0)
( <= ( + X7 1) Z)
( >= Y7 0)
( <= ( + Y7 65 ) 193)
( >= X8 0)
( <= ( + X8 35) Z)
( >= Y8 0)
( <= ( + Y8 83 ) 193)
( >= X9 0)
( <= ( + X9 71) Z)
( >= Y9 0)
( <= ( + Y9 45 ) 193)
( >= X10 0)
( <= ( + X10 16) Z)
( >= Y10 0)
( <= ( + Y10 7 ) 193)
( >= X11 0)
( <= ( + X11 56) Z)
( >= Y11 0)
( <= ( + Y11 60 ) 193)
( >= X12 0)
( <= ( + X12 60) Z)
( >= Y12 0)
( <= ( + Y12 85 ) 193)
( >= X13 0)
( <= ( + X13 1) Z)
( >= Y13 0)
( <= ( + Y13 94 ) 193)
( >= X14 0)
( <= ( + X14 88) Z)
( >= Y14 0)
( <= ( + Y14 55 ) 193)
) )
(minimize Z)
(check-sat)
